(define-fun hasSoldHouse_27_visible () Bool true)
(declare-const hasSoldHouse_27 Bool)
(define-fun hasBoughtHouse_87_visible () Bool true)
(declare-const hasBoughtHouse_87 Bool)
(define-fun hasMaintLoan_148_visible () Bool true)
(declare-const hasMaintLoan_148 Bool)
(define-fun sellingPrice_229_visible () Bool (and true hasSoldHouse_27))
(declare-const sellingPrice_229 Real)
(define-fun privateDebt_289_visible () Bool (and true hasSoldHouse_27))
(declare-const privateDebt_289 Real)
(define-fun valueResidue_354_visible () Bool (and true hasSoldHouse_27))
(define-fun valueResidue_354 () Real (- sellingPrice_229 privateDebt_289))

(push)
(assert hasSoldHouse_27_visible)
(check-sat)
(pop)
(push)
(assert hasBoughtHouse_87_visible)
(check-sat)
(pop)
(push)
(assert hasMaintLoan_148_visible)
(check-sat)
(pop)
(push)
(assert sellingPrice_229_visible)
(check-sat)
(pop)
(push)
(assert privateDebt_289_visible)
(check-sat)
(pop)
(push)
(assert valueResidue_354_visible)
(check-sat)
(pop)
(push)
(assert (not (=> valueResidue_354_visible (and privateDebt_289_visible sellingPrice_229_visible))))
(check-sat)
(pop)